(set-logic HORN)
(declare-datatypes ((Nat_1 0)) (((Z_1 ) (S_1 (unS_0 Nat_1)))))
(declare-fun diseqNat_0 (Nat_1 Nat_1) Bool)
(declare-fun unS_1 (Nat_1 Nat_1) Bool)
(declare-fun isZ_0 (Nat_1) Bool)
(declare-fun isS_0 (Nat_1) Bool)
(assert (forall ((x_43 Nat_1) (x_42 Nat_1))
	(=> (= x_43 (S_1 x_42))
	    (unS_1 x_42 x_43))))
(assert (isZ_0 Z_1))
(assert (forall ((x_44 Nat_1))
	(isS_0 (S_1 x_44))))
(assert (forall ((x_45 Nat_1))
	(diseqNat_0 Z_1 (S_1 x_45))))
(assert (forall ((x_46 Nat_1))
	(diseqNat_0 (S_1 x_46) Z_1)))
(assert (forall ((x_47 Nat_1) (x_48 Nat_1))
	(=> (diseqNat_0 x_47 x_48)
	    (diseqNat_0 (S_1 x_47) (S_1 x_48)))))
(declare-fun add_0 (Nat_1 Nat_1 Nat_1) Bool)
(declare-fun minus_0 (Nat_1 Nat_1 Nat_1) Bool)
(declare-fun le_0 (Nat_1 Nat_1) Bool)
(declare-fun ge_0 (Nat_1 Nat_1) Bool)
(declare-fun lt_0 (Nat_1 Nat_1) Bool)
(declare-fun gt_0 (Nat_1 Nat_1) Bool)
(declare-fun mult_0 (Nat_1 Nat_1 Nat_1) Bool)
(declare-fun div_0 (Nat_1 Nat_1 Nat_1) Bool)
(declare-fun mod_0 (Nat_1 Nat_1 Nat_1) Bool)
(assert (forall ((y_8 Nat_1))
	(add_0 y_8 Z_1 y_8)))
(assert (forall ((x_40 Nat_1) (y_8 Nat_1) (r_0 Nat_1))
	(=> (add_0 r_0 x_40 y_8)
	    (add_0 (S_1 r_0) (S_1 x_40) y_8))))
(assert (forall ((y_8 Nat_1))
	(minus_0 Z_1 Z_1 y_8)))
(assert (forall ((x_40 Nat_1) (y_8 Nat_1) (r_0 Nat_1))
	(=> (minus_0 r_0 x_40 y_8)
	    (minus_0 (S_1 r_0) (S_1 x_40) y_8))))
(assert (forall ((y_8 Nat_1))
	(le_0 Z_1 y_8)))
(assert (forall ((x_40 Nat_1) (y_8 Nat_1))
	(=> (le_0 x_40 y_8)
	    (le_0 (S_1 x_40) (S_1 y_8)))))
(assert (forall ((y_8 Nat_1))
	(ge_0 y_8 Z_1)))
(assert (forall ((x_40 Nat_1) (y_8 Nat_1))
	(=> (ge_0 x_40 y_8)
	    (ge_0 (S_1 x_40) (S_1 y_8)))))
(assert (forall ((y_8 Nat_1))
	(lt_0 Z_1 (S_1 y_8))))
(assert (forall ((x_40 Nat_1) (y_8 Nat_1))
	(=> (lt_0 x_40 y_8)
	    (lt_0 (S_1 x_40) (S_1 y_8)))))
(assert (forall ((y_8 Nat_1))
	(gt_0 (S_1 y_8) Z_1)))
(assert (forall ((x_40 Nat_1) (y_8 Nat_1))
	(=> (gt_0 x_40 y_8)
	    (gt_0 (S_1 x_40) (S_1 y_8)))))
(assert (forall ((y_8 Nat_1))
	(mult_0 Z_1 Z_1 y_8)))
(assert (forall ((x_40 Nat_1) (y_8 Nat_1) (r_0 Nat_1) (z_5 Nat_1))
	(=>	(and (mult_0 r_0 x_40 y_8)
			(add_0 z_5 r_0 y_8))
		(mult_0 z_5 (S_1 x_40) y_8))))
(assert (forall ((x_40 Nat_1) (y_8 Nat_1))
	(=> (lt_0 x_40 y_8)
	    (div_0 Z_1 x_40 y_8))))
(assert (forall ((x_40 Nat_1) (y_8 Nat_1) (r_0 Nat_1) (z_5 Nat_1))
	(=>	(and (ge_0 x_40 y_8)
			(minus_0 z_5 x_40 y_8)
			(div_0 r_0 z_5 y_8))
		(div_0 (S_1 r_0) x_40 y_8))))
(assert (forall ((x_40 Nat_1) (y_8 Nat_1))
	(=> (lt_0 x_40 y_8)
	    (mod_0 x_40 x_40 y_8))))
(assert (forall ((x_40 Nat_1) (y_8 Nat_1) (r_0 Nat_1) (z_5 Nat_1))
	(=>	(and (ge_0 x_40 y_8)
			(minus_0 z_5 x_40 y_8)
			(mod_0 r_0 z_5 y_8))
		(mod_0 r_0 x_40 y_8))))
(declare-datatypes ((Nat_0 0)) (((Z_0 ) (S_0 (projS_0 Nat_0)))))
(declare-fun diseqNat_1 (Nat_0 Nat_0) Bool)
(declare-fun projS_1 (Nat_0 Nat_0) Bool)
(declare-fun isZ_1 (Nat_0) Bool)
(declare-fun isS_1 (Nat_0) Bool)
(assert (forall ((x_51 Nat_0) (x_50 Nat_0))
	(=> (= x_51 (S_0 x_50))
	    (projS_1 x_50 x_51))))
(assert (isZ_1 Z_0))
(assert (forall ((x_52 Nat_0))
	(isS_1 (S_0 x_52))))
(assert (forall ((x_53 Nat_0))
	(diseqNat_1 Z_0 (S_0 x_53))))
(assert (forall ((x_54 Nat_0))
	(diseqNat_1 (S_0 x_54) Z_0)))
(assert (forall ((x_55 Nat_0) (x_56 Nat_0))
	(=> (diseqNat_1 x_55 x_56)
	    (diseqNat_1 (S_0 x_55) (S_0 x_56)))))
(declare-datatypes ((list_0 0)) (((nil_0 ) (cons_0 (head_0 Nat_0) (tail_0 list_0)))))
(declare-fun diseqlist_0 (list_0 list_0) Bool)
(declare-fun head_1 (Nat_0 list_0) Bool)
(declare-fun tail_1 (list_0 list_0) Bool)
(declare-fun isnil_0 (list_0) Bool)
(declare-fun iscons_0 (list_0) Bool)
(assert (forall ((x_60 list_0) (x_58 Nat_0) (x_59 list_0))
	(=> (= x_60 (cons_0 x_58 x_59))
	    (head_1 x_58 x_60))))
(assert (forall ((x_60 list_0) (x_58 Nat_0) (x_59 list_0))
	(=> (= x_60 (cons_0 x_58 x_59))
	    (tail_1 x_59 x_60))))
(assert (isnil_0 nil_0))
(assert (forall ((x_61 Nat_0) (x_62 list_0))
	(iscons_0 (cons_0 x_61 x_62))))
(assert (forall ((x_63 Nat_0) (x_64 list_0))
	(diseqlist_0 nil_0 (cons_0 x_63 x_64))))
(assert (forall ((x_65 Nat_0) (x_66 list_0))
	(diseqlist_0 (cons_0 x_65 x_66) nil_0)))
(assert (forall ((x_67 Nat_0) (x_68 list_0) (x_69 Nat_0) (x_70 list_0))
	(=> (diseqNat_1 x_67 x_69)
	    (diseqlist_0 (cons_0 x_67 x_68) (cons_0 x_69 x_70)))))
(assert (forall ((x_67 Nat_0) (x_68 list_0) (x_69 Nat_0) (x_70 list_0))
	(=> (diseqlist_0 x_68 x_70)
	    (diseqlist_0 (cons_0 x_67 x_68) (cons_0 x_69 x_70)))))
(declare-fun barbar_0 (Bool Bool Bool) Bool)
(assert (forall ((x_0 Bool) (y_0 Bool) (x_12 Bool))
	(=>	(and (= x_12 true)
			x_0)
		(barbar_0 x_12 x_0 y_0))))
(assert (forall ((x_0 Bool) (y_0 Bool) (x_13 Bool))
	(=>	(and (= x_13 y_0)
			(not x_0))
		(barbar_0 x_13 x_0 y_0))))
(declare-fun x_1 (Bool Nat_0 Nat_0) Bool)
(assert (forall ((x_2 Nat_0) (y_1 Nat_0) (x_3 Nat_0) (y_2 Nat_0) (x_14 Bool) (x_15 Bool))
	(=>	(and (= x_14 x_15)
			(x_1 x_15 x_3 y_2)
			(= x_2 (S_0 x_3))
			(= y_1 (S_0 y_2)))
		(x_1 x_14 x_2 y_1))))
(assert (forall ((x_2 Nat_0) (y_1 Nat_0) (x_3 Nat_0) (x_16 Bool))
	(=>	(and (= x_16 false)
			(= x_2 (S_0 x_3))
			(= y_1 Z_0))
		(x_1 x_16 x_2 y_1))))
(assert (forall ((x_2 Nat_0) (y_1 Nat_0) (z_0 Nat_0) (x_17 Bool))
	(=>	(and (= x_17 false)
			(= x_2 Z_0)
			(= y_1 (S_0 z_0)))
		(x_1 x_17 x_2 y_1))))
(assert (forall ((x_2 Nat_0) (y_1 Nat_0) (x_18 Bool))
	(=>	(and (= x_18 true)
			(= x_2 Z_0)
			(= y_1 Z_0))
		(x_1 x_18 x_2 y_1))))
(declare-fun elem_0 (Bool Nat_0 list_0) Bool)
(assert (forall ((x_4 Nat_0) (y_3 list_0) (z_1 Nat_0) (xs_0 list_0) (x_19 Bool) (x_20 Bool) (x_21 Bool) (x_22 Bool))
	(=>	(and (= x_19 x_22)
			(x_1 x_20 x_4 z_1)
			(elem_0 x_21 x_4 xs_0)
			(barbar_0 x_22 x_20 x_21)
			(= y_3 (cons_0 z_1 xs_0)))
		(elem_0 x_19 x_4 y_3))))
(assert (forall ((x_4 Nat_0) (y_3 list_0) (x_23 Bool))
	(=>	(and (= x_23 false)
			(= y_3 nil_0))
		(elem_0 x_23 x_4 y_3))))
(declare-fun x_5 (Bool Nat_0 Nat_0) Bool)
(assert (forall ((x_6 Nat_0) (y_4 Nat_0) (z_2 Nat_0) (x_7 Nat_0) (x_24 Bool) (x_25 Bool))
	(=>	(and (= x_24 x_25)
			(x_5 x_25 z_2 x_7)
			(= x_6 (S_0 z_2))
			(= y_4 (S_0 x_7)))
		(x_5 x_24 x_6 y_4))))
(assert (forall ((x_6 Nat_0) (y_4 Nat_0) (z_2 Nat_0) (x_26 Bool))
	(=>	(and (= x_26 false)
			(= x_6 (S_0 z_2))
			(= y_4 Z_0))
		(x_5 x_26 x_6 y_4))))
(assert (forall ((x_6 Nat_0) (y_4 Nat_0) (x_27 Bool))
	(=>	(and (= x_27 true)
			(= x_6 Z_0))
		(x_5 x_27 x_6 y_4))))
(declare-fun insert_0 (list_0 Nat_0 list_0) Bool)
(assert (forall ((x_8 Nat_0) (y_5 list_0) (z_3 Nat_0) (xs_1 list_0) (x_29 list_0) (x_28 Bool))
	(=>	(and (= x_29 (cons_0 x_8 (cons_0 z_3 xs_1)))
			(= y_5 (cons_0 z_3 xs_1))
			(= x_28 true)
			(x_5 x_28 x_8 z_3))
		(insert_0 x_29 x_8 y_5))))
(assert (forall ((x_8 Nat_0) (y_5 list_0) (z_3 Nat_0) (xs_1 list_0) (x_31 list_0) (x_32 list_0) (x_30 Bool))
	(=>	(and (= x_31 (cons_0 z_3 x_32))
			(insert_0 x_32 x_8 xs_1)
			(= y_5 (cons_0 z_3 xs_1))
			(= x_30 false)
			(x_5 x_30 x_8 z_3))
		(insert_0 x_31 x_8 y_5))))
(assert (forall ((x_8 Nat_0) (y_5 list_0) (x_33 list_0))
	(=>	(and (= x_33 (cons_0 x_8 nil_0))
			(= y_5 nil_0))
		(insert_0 x_33 x_8 y_5))))
(declare-fun x_9 (Bool Nat_0 Nat_0) Bool)
(assert (forall ((x_10 Nat_0) (y_6 Nat_0) (x_34 Bool) (x_35 Bool))
	(=>	(and (= x_34 (not x_35))
			(x_1 x_35 x_10 y_6))
		(x_9 x_34 x_10 y_6))))
(assert (forall ((x_11 Nat_0) (y_7 Nat_0) (z_4 list_0) (x_36 list_0) (x_37 Bool) (x_38 Bool) (x_39 Bool))
	(=>	(and (not (= x_37 x_38))
			(= x_39 true)
			(insert_0 x_36 y_7 z_4)
			(elem_0 x_37 x_11 x_36)
			(elem_0 x_38 x_11 z_4)
			(x_9 x_39 x_11 y_7))
		false)))
(check-sat)
